c parity= 0 1 1 0 1 1 0 0 0 0 1 1 1 1 1 0 0 0 1 1 0 0 0 1 1 0 0 0 0 0 1 0 
c e= 0.25
p cnf 96 65
x -2 5 8 9 11 16 17 18 22 28 29 30 31 32 -33 0
x 4 5 6 8 9 10 14 15 17 22 23 24 25 28 -34 0
x -1 2 3 6 7 9 18 19 20 21 22 24 25 30 31 -35 0
x -2 5 6 9 11 13 15 19 21 22 26 28 30 31 32 -36 0
x 1 3 4 5 7 8 10 11 13 15 16 17 19 23 24 26 28 29 -37 0
x -1 3 9 10 12 13 15 16 18 20 22 23 25 27 28 -38 0
x 1 3 4 6 7 8 9 10 11 16 17 18 20 23 24 27 30 32 -39 0
x -1 2 3 4 5 8 10 19 23 25 26 27 29 30 31 32 -40 0
x -1 2 3 4 5 10 12 14 16 17 18 19 20 21 22 23 24 25 26 27 29 30 31 32 -41 0
x 1 2 5 6 11 13 15 16 17 21 22 24 25 28 29 30 -42 0
x 1 6 7 8 11 12 13 14 15 16 20 22 23 25 27 29 31 32 -43 0
x 2 4 6 7 12 13 16 17 18 19 20 21 22 23 24 26 27 29 -44 0
x 1 2 3 8 9 10 15 16 21 23 24 27 28 30 31 32 -45 0
x 2 3 5 8 9 11 14 17 21 22 24 25 26 29 -46 0
x -1 2 5 7 8 10 12 13 15 18 19 20 21 22 23 28 29 31 32 -47 0
x -1 3 10 12 13 14 16 18 24 25 27 29 -48 0
x -1 2 4 7 8 11 13 14 17 19 21 22 24 27 28 29 30 -49 0
x -2 4 5 7 8 9 11 12 14 16 18 22 24 25 26 30 31 -50 0
x 2 4 8 11 13 14 17 18 20 21 24 29 31 32 -51 0
x -1 2 4 5 6 10 12 13 14 15 16 17 18 21 25 26 28 30 -52 0
x 3 4 10 13 17 18 20 22 23 24 30 31 32 -53 0
x 2 3 4 6 7 8 13 14 15 19 20 21 22 23 24 26 27 30 -54 0
x 1 5 6 8 9 11 12 18 20 21 23 24 25 26 27 30 31 -55 0
x 4 5 10 12 13 14 16 17 18 19 21 24 26 29 -56 0
x 2 5 6 7 8 11 14 16 17 21 22 23 24 25 26 29 30 32 -57 0
x 2 4 5 7 9 10 12 13 16 20 24 26 30 -58 0
x 4 5 7 10 14 18 19 21 23 27 28 30 32 -59 0
x -1 2 3 7 10 15 18 21 23 24 25 28 29 30 31 -60 0
x -1 2 3 4 5 7 8 9 11 15 16 17 22 23 26 27 28 31 -61 0
x 1 3 4 9 10 12 13 17 18 20 21 24 25 30 31 32 -62 0
x 1 3 4 5 6 7 8 9 10 12 13 14 19 21 22 24 25 26 28 29 32 -63 0
x 2 3 4 5 6 7 8 11 12 14 16 17 18 19 20 21 22 24 25 29 30 31 -64 0
x -4 11 12 17 18 19 20 21 22 23 24 25 26 27 28 30 32 -65 0
x -2 4 5 9 13 17 20 22 24 28 31 32 -66 0
x -4 5 7 14 15 17 25 26 27 28 29 32 -67 0
x -1 2 4 5 6 7 9 10 15 16 17 19 20 21 22 24 26 27 31 32 -68 0
x 1 2 7 10 13 14 16 17 18 20 21 22 24 27 28 29 30 -69 0
x 1 2 3 8 11 13 14 16 19 20 22 23 24 25 26 27 29 -70 0
x -2 4 5 7 8 11 14 15 17 19 20 22 23 27 28 29 31 -71 0
x 1 5 6 9 10 11 13 15 17 20 21 24 27 30 31 32 -72 0
x -2 3 6 7 8 9 11 21 22 26 27 30 32 -73 0
x -2 3 5 6 7 11 12 13 16 17 18 19 20 23 25 28 29 30 -74 0
x -1 2 3 5 6 10 12 13 18 19 20 22 23 25 26 27 28 29 31 -75 0
x 2 4 5 6 7 8 9 10 13 14 15 19 21 25 27 -76 0
x 1 3 5 6 7 8 9 11 13 15 17 18 19 21 25 28 29 -77 0
x 4 5 8 10 11 13 14 16 17 18 21 22 24 26 27 29 30 31 32 -78 0
x 1 2 3 4 5 7 8 12 13 14 15 16 20 23 29 31 -79 0
x 2 3 11 12 14 16 18 19 20 23 24 27 29 30 31 32 -80 0
x 1 4 5 7 8 10 12 13 15 17 19 24 27 31 -81 0
x -4 5 7 10 12 14 15 18 19 23 24 25 27 28 -82 0
x -1 3 5 8 9 10 11 12 14 19 21 26 27 28 30 31 -83 0
x -1 2 3 7 9 11 14 15 18 19 23 24 26 27 30 31 32 -84 0
x 3 4 7 8 9 11 14 15 20 24 25 27 28 30 32 -85 0
x 2 3 4 7 9 10 11 12 14 15 16 17 19 22 23 24 28 30 -86 0
x 4 5 6 7 10 14 15 16 17 20 22 24 26 28 32 -87 0
x 2 3 8 9 10 11 12 14 15 19 20 22 23 25 26 27 28 -88 0
x -2 3 4 5 8 10 11 15 16 17 19 20 21 24 25 26 28 29 31 -89 0
x -2 5 7 8 11 12 13 14 17 23 25 26 27 31 -90 0
x -2 5 6 7 14 16 17 19 23 24 26 27 28 29 32 -91 0
x 2 4 9 12 13 14 15 17 19 21 23 27 28 29 -92 0
x 1 3 4 5 6 8 10 13 16 17 19 22 23 24 27 29 -93 0
x 4 5 9 12 14 15 16 17 18 20 22 23 24 27 29 30 31 -94 0
x 1 3 4 5 6 8 10 11 12 14 15 16 17 18 23 -95 0
x 2 3 4 8 10 11 12 14 17 18 19 21 23 25 27 29 32 -96 0
d 48 33 34 35 36 37 38 39 40 41 42 43 44 45 46 47 48 49 50 51 52 53 54 55 56 57 58 59 60 61 62 63 64 65 66 67 68 69 70 71 72 73 74 75 76 77 78 79 80 81 82 83 84 85 86 87 88 89 90 91 92 93 94 95 96 0
